(declare-fun var0 () String)
(assert (RegexIn var0 (RegexConcat (RegexPlus (RegexPlus (Str2Reg "hh"))) (RegexConcat (RegexUnion (RegexStar (Str2Reg "ee")) (RegexUnion (Str2Reg "f") (Str2Reg "gg"))) (RegexConcat (RegexUnion (RegexStar (Str2Reg "bb")) (RegexUnion (Str2Reg "ccc") (Str2Reg "ddd"))) (RegexConcat (RegexPlus (RegexStar (Str2Reg "a"))) (RegexConcat (RegexPlus (RegexStar (Str2Reg "9"))) (RegexConcat (RegexPlus (RegexUnion (Str2Reg "77") (Str2Reg "8"))) (RegexConcat (RegexUnion (RegexPlus (Str2Reg "555")) (RegexStar (Str2Reg "666"))) (RegexConcat (RegexStar (RegexUnion (Str2Reg "33") (Str2Reg "4"))) (RegexConcat (RegexPlus (RegexUnion (Str2Reg "1") (Str2Reg "222"))) (RegexPlus (RegexStar (Str2Reg "0"))))))))))))))
(assert (RegexIn var0 (RegexConcat (RegexUnion (RegexUnion (Str2Reg "h") (Str2Reg "iii")) (RegexUnion (Str2Reg "jjj") (Str2Reg "kkk"))) (RegexConcat (RegexPlus (RegexPlus (Str2Reg "gg"))) (RegexConcat (RegexUnion (RegexPlus (Str2Reg "e")) (RegexStar (Str2Reg "ff"))) (RegexConcat (RegexStar (RegexStar (Str2Reg "dd"))) (RegexConcat (RegexPlus (RegexUnion (Str2Reg "bbb") (Str2Reg "ccc"))) (RegexConcat (RegexUnion (RegexPlus (Str2Reg "999")) (RegexStar (Str2Reg "aaa"))) (RegexConcat (RegexPlus (RegexPlus (Str2Reg "8"))) (RegexConcat (RegexUnion (RegexUnion (Str2Reg "444") (Str2Reg "555")) (RegexUnion (Str2Reg "66") (Str2Reg "77"))) (RegexConcat (RegexUnion (RegexPlus (Str2Reg "22")) (RegexPlus (Str2Reg "3"))) (RegexStar (RegexUnion (Str2Reg "00") (Str2Reg "1"))))))))))))))
(assert (RegexIn var0 (RegexConcat (RegexUnion (RegexStar (Str2Reg "ee")) (RegexPlus (Str2Reg "f"))) (RegexConcat (RegexPlus (RegexPlus (Str2Reg "ddd"))) (RegexConcat (RegexUnion (RegexPlus (Str2Reg "bb")) (RegexPlus (Str2Reg "ccc"))) (RegexConcat (RegexStar (RegexStar (Str2Reg "a"))) (RegexConcat (RegexPlus (RegexPlus (Str2Reg "9"))) (RegexConcat (RegexPlus (RegexStar (Str2Reg "888"))) (RegexConcat (RegexPlus (RegexStar (Str2Reg "777"))) (RegexConcat (RegexUnion (RegexPlus (Str2Reg "5")) (RegexPlus (Str2Reg "66"))) (RegexConcat (RegexPlus (RegexPlus (Str2Reg "44"))) (RegexUnion (RegexUnion (Str2Reg "00") (Str2Reg "1")) (RegexUnion (Str2Reg "2") (Str2Reg "33"))))))))))))))
(assert (RegexIn var0 (RegexConcat (RegexStar (RegexPlus (Str2Reg "iii"))) (RegexConcat (RegexPlus (RegexUnion (Str2Reg "ggg") (Str2Reg "h"))) (RegexConcat (RegexUnion (RegexUnion (Str2Reg "ddd") (Str2Reg "eee")) (RegexPlus (Str2Reg "fff"))) (RegexConcat (RegexPlus (RegexPlus (Str2Reg "cc"))) (RegexConcat (RegexPlus (RegexStar (Str2Reg "bb"))) (RegexConcat (RegexStar (RegexStar (Str2Reg "a"))) (RegexConcat (RegexStar (RegexPlus (Str2Reg "99"))) (RegexConcat (RegexUnion (RegexUnion (Str2Reg "5") (Str2Reg "6")) (RegexUnion (Str2Reg "77") (Str2Reg "8"))) (RegexConcat (RegexUnion (RegexUnion (Str2Reg "22") (Str2Reg "3")) (RegexStar (Str2Reg "444"))) (RegexStar (RegexUnion (Str2Reg "0") (Str2Reg "11"))))))))))))))
(check-sat)